certificates/rado_a5_c267_N53.cnf
c Rad2 upper bound instance: x1 + 5*x2 - x3 = 267, interval [1,53]
p cnf 53 572
1 3 53 0
-1 -3 -53 0
2 4 53 0
-2 -4 -53 0
3 5 53 0
-3 -5 -53 0
4 6 53 0
-4 -6 -53 0
5 7 53 0
-5 -7 -53 0
1 8 52 0
-1 -8 -52 0
6 8 53 0
-6 -8 -53 0
2 9 52 0
-2 -9 -52 0
7 9 53 0
-7 -9 -53 0
3 10 52 0
-3 -10 -52 0
8 10 53 0
-8 -10 -53 0
4 11 52 0
-4 -11 -52 0
9 11 53 0
-9 -11 -53 0
5 12 52 0
-5 -12 -52 0
10 12 53 0
-10 -12 -53 0
1 13 51 0
-1 -13 -51 0
6 13 52 0
-6 -13 -52 0
11 13 53 0
-11 -13 -53 0
2 14 51 0
-2 -14 -51 0
7 14 52 0
-7 -14 -52 0
12 14 53 0
-12 -14 -53 0
3 15 51 0
-3 -15 -51 0
8 15 52 0
-8 -15 -52 0
13 15 53 0
-13 -15 -53 0
4 16 51 0
-4 -16 -51 0
9 16 52 0
-9 -16 -52 0
14 16 53 0
-14 -16 -53 0
5 17 51 0
-5 -17 -51 0
10 17 52 0
-10 -17 -52 0
15 17 53 0
-15 -17 -53 0
1 18 50 0
-1 -18 -50 0
6 18 51 0
-6 -18 -51 0
11 18 52 0
-11 -18 -52 0
16 18 53 0
-16 -18 -53 0
2 19 50 0
-2 -19 -50 0
7 19 51 0
-7 -19 -51 0
12 19 52 0
-12 -19 -52 0
17 19 53 0
-17 -19 -53 0
3 20 50 0
-3 -20 -50 0
8 20 51 0
-8 -20 -51 0
13 20 52 0
-13 -20 -52 0
18 20 53 0
-18 -20 -53 0
4 21 50 0
-4 -21 -50 0
9 21 51 0
-9 -21 -51 0
14 21 52 0
-14 -21 -52 0
19 21 53 0
-19 -21 -53 0
5 22 50 0
-5 -22 -50 0
10 22 51 0
-10 -22 -51 0
15 22 52 0
-15 -22 -52 0
20 22 53 0
-20 -22 -53 0
1 23 49 0
-1 -23 -49 0
6 23 50 0
-6 -23 -50 0
11 23 51 0
-11 -23 -51 0
16 23 52 0
-16 -23 -52 0
21 23 53 0
-21 -23 -53 0
2 24 49 0
-2 -24 -49 0
7 24 50 0
-7 -24 -50 0
12 24 51 0
-12 -24 -51 0
17 24 52 0
-17 -24 -52 0
22 24 53 0
-22 -24 -53 0
3 25 49 0
-3 -25 -49 0
8 25 50 0
-8 -25 -50 0
13 25 51 0
-13 -25 -51 0
18 25 52 0
-18 -25 -52 0
23 25 53 0
-23 -25 -53 0
4 26 49 0
-4 -26 -49 0
9 26 50 0
-9 -26 -50 0
14 26 51 0
-14 -26 -51 0
19 26 52 0
-19 -26 -52 0
24 26 53 0
-24 -26 -53 0
5 27 49 0
-5 -27 -49 0
10 27 50 0
-10 -27 -50 0
15 27 51 0
-15 -27 -51 0
20 27 52 0
-20 -27 -52 0
25 27 53 0
-25 -27 -53 0
1 28 48 0
-1 -28 -48 0
6 28 49 0
-6 -28 -49 0
11 28 50 0
-11 -28 -50 0
16 28 51 0
-16 -28 -51 0
21 28 52 0
-21 -28 -52 0
26 28 53 0
-26 -28 -53 0
2 29 48 0
-2 -29 -48 0
7 29 49 0
-7 -29 -49 0
12 29 50 0
-12 -29 -50 0
17 29 51 0
-17 -29 -51 0
22 29 52 0
-22 -29 -52 0
27 29 53 0
-27 -29 -53 0
3 30 48 0
-3 -30 -48 0
8 30 49 0
-8 -30 -49 0
13 30 50 0
-13 -30 -50 0
18 30 51 0
-18 -30 -51 0
23 30 52 0
-23 -30 -52 0
28 30 53 0
-28 -30 -53 0
4 31 48 0
-4 -31 -48 0
9 31 49 0
-9 -31 -49 0
14 31 50 0
-14 -31 -50 0
19 31 51 0
-19 -31 -51 0
24 31 52 0
-24 -31 -52 0
29 31 53 0
-29 -31 -53 0
5 32 48 0
-5 -32 -48 0
10 32 49 0
-10 -32 -49 0
15 32 50 0
-15 -32 -50 0
20 32 51 0
-20 -32 -51 0
25 32 52 0
-25 -32 -52 0
30 32 53 0
-30 -32 -53 0
1 33 47 0
-1 -33 -47 0
6 33 48 0
-6 -33 -48 0
11 33 49 0
-11 -33 -49 0
16 33 50 0
-16 -33 -50 0
21 33 51 0
-21 -33 -51 0
26 33 52 0
-26 -33 -52 0
31 33 53 0
-31 -33 -53 0
2 34 47 0
-2 -34 -47 0
7 34 48 0
-7 -34 -48 0
12 34 49 0
-12 -34 -49 0
17 34 50 0
-17 -34 -50 0
22 34 51 0
-22 -34 -51 0
27 34 52 0
-27 -34 -52 0
32 34 53 0
-32 -34 -53 0
3 35 47 0
-3 -35 -47 0
8 35 48 0
-8 -35 -48 0
13 35 49 0
-13 -35 -49 0
18 35 50 0
-18 -35 -50 0
23 35 51 0
-23 -35 -51 0
28 35 52 0
-28 -35 -52 0
33 35 53 0
-33 -35 -53 0
4 36 47 0
-4 -36 -47 0
9 36 48 0
-9 -36 -48 0
14 36 49 0
-14 -36 -49 0
19 36 50 0
-19 -36 -50 0
24 36 51 0
-24 -36 -51 0
29 36 52 0
-29 -36 -52 0
34 36 53 0
-34 -36 -53 0
5 37 47 0
-5 -37 -47 0
10 37 48 0
-10 -37 -48 0
15 37 49 0
-15 -37 -49 0
20 37 50 0
-20 -37 -50 0
25 37 51 0
-25 -37 -51 0
30 37 52 0
-30 -37 -52 0
35 37 53 0
-35 -37 -53 0
1 38 46 0
-1 -38 -46 0
6 38 47 0
-6 -38 -47 0
11 38 48 0
-11 -38 -48 0
16 38 49 0
-16 -38 -49 0
21 38 50 0
-21 -38 -50 0
26 38 51 0
-26 -38 -51 0
31 38 52 0
-31 -38 -52 0
36 38 53 0
-36 -38 -53 0
2 39 46 0
-2 -39 -46 0
7 39 47 0
-7 -39 -47 0
12 39 48 0
-12 -39 -48 0
17 39 49 0
-17 -39 -49 0
22 39 50 0
-22 -39 -50 0
27 39 51 0
-27 -39 -51 0
32 39 52 0
-32 -39 -52 0
37 39 53 0
-37 -39 -53 0
3 40 46 0
-3 -40 -46 0
8 40 47 0
-8 -40 -47 0
13 40 48 0
-13 -40 -48 0
18 40 49 0
-18 -40 -49 0
23 40 50 0
-23 -40 -50 0
28 40 51 0
-28 -40 -51 0
33 40 52 0
-33 -40 -52 0
38 40 53 0
-38 -40 -53 0
4 41 46 0
-4 -41 -46 0
9 41 47 0
-9 -41 -47 0
14 41 48 0
-14 -41 -48 0
19 41 49 0
-19 -41 -49 0
24 41 50 0
-24 -41 -50 0
29 41 51 0
-29 -41 -51 0
34 41 52 0
-34 -41 -52 0
39 41 53 0
-39 -41 -53 0
5 42 46 0
-5 -42 -46 0
10 42 47 0
-10 -42 -47 0
15 42 48 0
-15 -42 -48 0
20 42 49 0
-20 -42 -49 0
25 42 50 0
-25 -42 -50 0
30 42 51 0
-30 -42 -51 0
35 42 52 0
-35 -42 -52 0
40 42 53 0
-40 -42 -53 0
1 43 45 0
-1 -43 -45 0
6 43 46 0
-6 -43 -46 0
11 43 47 0
-11 -43 -47 0
16 43 48 0
-16 -43 -48 0
21 43 49 0
-21 -43 -49 0
26 43 50 0
-26 -43 -50 0
31 43 51 0
-31 -43 -51 0
36 43 52 0
-36 -43 -52 0
41 43 53 0
-41 -43 -53 0
2 44 45 0
-2 -44 -45 0
7 44 46 0
-7 -44 -46 0
12 44 47 0
-12 -44 -47 0
17 44 48 0
-17 -44 -48 0
22 44 49 0
-22 -44 -49 0
27 44 50 0
-27 -44 -50 0
32 44 51 0
-32 -44 -51 0
37 44 52 0
-37 -44 -52 0
42 44 53 0
-42 -44 -53 0
3 45 0
-3 -45 0
8 45 46 0
-8 -45 -46 0
13 45 47 0
-13 -45 -47 0
18 45 48 0
-18 -45 -48 0
23 45 49 0
-23 -45 -49 0
28 45 50 0
-28 -45 -50 0
33 45 51 0
-33 -45 -51 0
38 45 52 0
-38 -45 -52 0
43 45 53 0
-43 -45 -53 0
4 45 46 0
-4 -45 -46 0
9 46 0
-9 -46 0
14 46 47 0
-14 -46 -47 0
19 46 48 0
-19 -46 -48 0
24 46 49 0
-24 -46 -49 0
29 46 50 0
-29 -46 -50 0
34 46 51 0
-34 -46 -51 0
39 46 52 0
-39 -46 -52 0
44 46 53 0
-44 -46 -53 0
5 45 47 0
-5 -45 -47 0
10 46 47 0
-10 -46 -47 0
15 47 0
-15 -47 0
20 47 48 0
-20 -47 -48 0
25 47 49 0
-25 -47 -49 0
30 47 50 0
-30 -47 -50 0
35 47 51 0
-35 -47 -51 0
40 47 52 0
-40 -47 -52 0
45 47 53 0
-45 -47 -53 0
1 44 48 0
-1 -44 -48 0
6 45 48 0
-6 -45 -48 0
11 46 48 0
-11 -46 -48 0
16 47 48 0
-16 -47 -48 0
21 48 0
-21 -48 0
26 48 49 0
-26 -48 -49 0
31 48 50 0
-31 -48 -50 0
36 48 51 0
-36 -48 -51 0
41 48 52 0
-41 -48 -52 0
46 48 53 0
-46 -48 -53 0
2 44 49 0
-2 -44 -49 0
7 45 49 0
-7 -45 -49 0
12 46 49 0
-12 -46 -49 0
17 47 49 0
-17 -47 -49 0
22 48 49 0
-22 -48 -49 0
27 49 0
-27 -49 0
32 49 50 0
-32 -49 -50 0
37 49 51 0
-37 -49 -51 0
42 49 52 0
-42 -49 -52 0
47 49 53 0
-47 -49 -53 0
3 44 50 0
-3 -44 -50 0
8 45 50 0
-8 -45 -50 0
13 46 50 0
-13 -46 -50 0
18 47 50 0
-18 -47 -50 0
23 48 50 0
-23 -48 -50 0
28 49 50 0
-28 -49 -50 0
33 50 0
-33 -50 0
38 50 51 0
-38 -50 -51 0
43 50 52 0
-43 -50 -52 0
48 50 53 0
-48 -50 -53 0
4 44 51 0
-4 -44 -51 0
9 45 51 0
-9 -45 -51 0
14 46 51 0
-14 -46 -51 0
19 47 51 0
-19 -47 -51 0
24 48 51 0
-24 -48 -51 0
29 49 51 0
-29 -49 -51 0
34 50 51 0
-34 -50 -51 0
39 51 0
-39 -51 0
44 51 52 0
-44 -51 -52 0
49 51 53 0
-49 -51 -53 0
5 44 52 0
-5 -44 -52 0
10 45 52 0
-10 -45 -52 0
15 46 52 0
-15 -46 -52 0
20 47 52 0
-20 -47 -52 0
25 48 52 0
-25 -48 -52 0
30 49 52 0
-30 -49 -52 0
35 50 52 0
-35 -50 -52 0
40 51 52 0
-40 -51 -52 0
45 52 0
-45 -52 0
50 52 53 0
-50 -52 -53 0
1 43 53 0
-1 -43 -53 0
6 44 53 0
-6 -44 -53 0
11 45 53 0
-11 -45 -53 0
16 46 53 0
-16 -46 -53 0
21 47 53 0
-21 -47 -53 0
26 48 53 0
-26 -48 -53 0
31 49 53 0
-31 -49 -53 0
36 50 53 0
-36 -50 -53 0
41 51 53 0
-41 -51 -53 0
46 52 53 0
-46 -52 -53 0
51 53 0
-51 -53 0
