certificates/rado_a5_c267_N53.drat
-53 0
51 0
-39 0
37 0
41 0
-25 0
-49 0
-29 0
23 0
27 0
47 0
31 0
3 0
17 0
7 0
-11 0
-35 0
-15 0
-19 0
-5 0
-9 0
-43 0
-45 0
0
